Minimize
	value: tt

Subject to
s_1_8 = 1
tt + 1000 s_1_1 > 0.0
tt - t_1_1 - 1000.000000 s_1_1  > -999.687700
tt + 1000 s_2_1 > 0.0
tt - t_2_1 - 1000.000000 s_2_1  > -998.302800
tt + 1000 s_1_2 > 0.0
tt - t_1_2 - 1000.000000 s_1_2  > -994.217900
tt + 1000 s_2_2 > 0.0
tt - t_2_2 - 1000.000000 s_2_2  > -993.230900
tt + 1000 s_1_3 > 0.0
tt - t_1_3 - 1000.000000 s_1_3  > -994.219300
tt + 1000 s_2_3 > 0.0
tt - t_2_3 - 1000.000000 s_2_3  > -993.119600
tt + 1000 s_1_4 > 0.0
tt - t_1_4 - 1000.000000 s_1_4  > -991.335100
tt + 1000 s_2_4 > 0.0
tt - t_2_4 - 1000.000000 s_2_4  > -985.635100
tt + 1000 s_1_5 > 0.0
tt - t_1_5 - 1000.000000 s_1_5  > -994.526200
tt + 1000 s_2_5 > 0.0
tt - t_2_5 - 1000.000000 s_2_5  > -992.355500
tt + 1000 s_1_6 > 0.0
tt - t_1_6 - 1000.000000 s_1_6  > -990.947900
tt + 1000 s_2_6 > 0.0
tt - t_2_6 - 1000.000000 s_2_6  > -985.898700
tt + 1000 s_1_7 > 0.0
tt - t_1_7 - 1000.000000 s_1_7  > -996.523300
tt + 1000 s_2_7 > 0.0
tt - t_2_7 - 1000.000000 s_2_7  > -995.016000
tt + 1000 s_1_8 > 0.0
tt - t_1_8 - 1000.000000 s_1_8  > -999.846000
tt + 1000 s_2_8 > 0.0
tt - t_2_8 - 1000.000000 s_2_8  > -998.332500
s_1_1 + s_2_1 = 1
s_1_2 + s_2_2 = 1
s_1_3 + s_2_3 = 1
s_1_4 + s_2_4 = 1
s_1_5 + s_2_5 = 1
s_1_6 + s_2_6 = 1
s_1_7 + s_2_7 = 1
s_1_8 + s_2_8 = 1
s_1_1 + s_1_2 + 1000 r_1_1_2 >= 2
- s_1_1 - s_1_2 - 1000 r_1_1_2 >= -1001
t_1_1 - t_1_2 - 1000.000000 u_1_1_2 - 0.000000 s_1_2  + 2000.000000 r_1_1_2 > -994.217900
s_2_1 + s_2_2 + 1000 r_2_1_2 >= 2
- s_2_1 - s_2_2 - 1000 r_2_1_2 >= -1001
t_2_1 - t_2_2 - 1000.000000 u_2_1_2 - 0.000000 s_2_2  + 2000.000000 r_2_1_2 > -993.230900
s_1_1 + s_1_3 + 1000 r_1_1_3 >= 2
- s_1_1 - s_1_3 - 1000 r_1_1_3 >= -1001
t_1_1 - t_1_3 - 1000.000000 u_1_1_3 - 0.000000 s_1_3  + 2000.000000 r_1_1_3 > -994.219300
s_2_1 + s_2_3 + 1000 r_2_1_3 >= 2
- s_2_1 - s_2_3 - 1000 r_2_1_3 >= -1001
t_2_1 - t_2_3 - 1000.000000 u_2_1_3 - 0.000000 s_2_3  + 2000.000000 r_2_1_3 > -993.119600
s_1_1 + s_1_4 + 1000 r_1_1_4 >= 2
- s_1_1 - s_1_4 - 1000 r_1_1_4 >= -1001
t_1_1 - t_1_4 - 1000.000000 u_1_1_4 - 0.000000 s_1_4  + 2000.000000 r_1_1_4 > -991.335100
s_2_1 + s_2_4 + 1000 r_2_1_4 >= 2
- s_2_1 - s_2_4 - 1000 r_2_1_4 >= -1001
t_2_1 - t_2_4 - 1000.000000 u_2_1_4 - 0.000000 s_2_4  + 2000.000000 r_2_1_4 > -985.635100
s_1_1 + s_1_5 + 1000 r_1_1_5 >= 2
- s_1_1 - s_1_5 - 1000 r_1_1_5 >= -1001
t_1_1 - t_1_5 - 1000.000000 u_1_1_5 - 0.000000 s_1_5  + 2000.000000 r_1_1_5 > -994.526200
s_2_1 + s_2_5 + 1000 r_2_1_5 >= 2
- s_2_1 - s_2_5 - 1000 r_2_1_5 >= -1001
t_2_1 - t_2_5 - 1000.000000 u_2_1_5 - 0.000000 s_2_5  + 2000.000000 r_2_1_5 > -992.355500
s_1_1 + s_1_6 + 1000 r_1_1_6 >= 2
- s_1_1 - s_1_6 - 1000 r_1_1_6 >= -1001
t_1_1 - t_1_6 - 1000.000000 u_1_1_6 - 0.000000 s_1_6  + 2000.000000 r_1_1_6 > -990.947900
s_2_1 + s_2_6 + 1000 r_2_1_6 >= 2
- s_2_1 - s_2_6 - 1000 r_2_1_6 >= -1001
t_2_1 - t_2_6 - 1000.000000 u_2_1_6 - 0.000000 s_2_6  + 2000.000000 r_2_1_6 > -985.898700
s_1_1 + s_1_7 + 1000 r_1_1_7 >= 2
- s_1_1 - s_1_7 - 1000 r_1_1_7 >= -1001
t_1_1 - t_1_7 - 1000.000000 u_1_1_7 - 0.000000 s_1_7  + 2000.000000 r_1_1_7 > -996.523300
s_2_1 + s_2_7 + 1000 r_2_1_7 >= 2
- s_2_1 - s_2_7 - 1000 r_2_1_7 >= -1001
t_2_1 - t_2_7 - 1000.000000 u_2_1_7 - 0.000000 s_2_7  + 2000.000000 r_2_1_7 > -995.016000
t_1_8 - t_1_1 - 1000.000000 s_1_1  > -999.687700
t_1_8 - t_2_1 - 1000.000000 s_2_1  > -998.302800
t_2_8 - t_1_1 - 1000.000000 s_1_1  > -999.687700
t_2_8 - t_2_1 - 1000.000000 s_2_1  > -998.302800
s_1_2 + s_1_1 + 1000 r_1_1_2 >= 2
- s_1_2 - s_1_1 - 1000 r_1_1_2 >= -1001
t_1_2 - t_1_1 + 1000.000000 u_1_1_2 - 0.000000 s_1_1  + 2000.000000 r_1_1_2 > 0.312300
s_2_2 + s_2_1 + 1000 r_2_1_2 >= 2
- s_2_2 - s_2_1 - 1000 r_2_1_2 >= -1001
t_2_2 - t_2_1 + 1000.000000 u_2_1_2 - 0.000000 s_2_1  + 2000.000000 r_2_1_2 > 1.697200
s_1_2 + s_1_3 + 1000 r_1_2_3 >= 2
- s_1_2 - s_1_3 - 1000 r_1_2_3 >= -1001
t_1_2 - t_1_3 - 1000.000000 u_1_2_3 - 0.000000 s_1_3  + 2000.000000 r_1_2_3 > -994.219300
s_2_2 + s_2_3 + 1000 r_2_2_3 >= 2
- s_2_2 - s_2_3 - 1000 r_2_2_3 >= -1001
t_2_2 - t_2_3 - 1000.000000 u_2_2_3 - 0.000000 s_2_3  + 2000.000000 r_2_2_3 > -993.119600
t_1_4 - t_1_2 - 1000.000000 s_1_2  > -994.217900
t_1_4 - t_2_2 - 1000.000000 s_2_2  > -993.230900
t_2_4 - t_1_2 - 1000.000000 s_1_2  > -994.217900
t_2_4 - t_2_2 - 1000.000000 s_2_2  > -993.230900
s_1_2 + s_1_5 + 1000 r_1_2_5 >= 2
- s_1_2 - s_1_5 - 1000 r_1_2_5 >= -1001
t_1_2 - t_1_5 - 1000.000000 u_1_2_5 - 0.000000 s_1_5  + 2000.000000 r_1_2_5 > -994.526200
s_2_2 + s_2_5 + 1000 r_2_2_5 >= 2
- s_2_2 - s_2_5 - 1000 r_2_2_5 >= -1001
t_2_2 - t_2_5 - 1000.000000 u_2_2_5 - 0.000000 s_2_5  + 2000.000000 r_2_2_5 > -992.355500
s_1_3 + s_1_1 + 1000 r_1_1_3 >= 2
- s_1_3 - s_1_1 - 1000 r_1_1_3 >= -1001
t_1_3 - t_1_1 + 1000.000000 u_1_1_3 - 0.000000 s_1_1  + 2000.000000 r_1_1_3 > 0.312300
s_2_3 + s_2_1 + 1000 r_2_1_3 >= 2
- s_2_3 - s_2_1 - 1000 r_2_1_3 >= -1001
t_2_3 - t_2_1 + 1000.000000 u_2_1_3 - 0.000000 s_2_1  + 2000.000000 r_2_1_3 > 1.697200
s_1_3 + s_1_2 + 1000 r_1_2_3 >= 2
- s_1_3 - s_1_2 - 1000 r_1_2_3 >= -1001
t_1_3 - t_1_2 + 1000.000000 u_1_2_3 - 0.000000 s_1_2  + 2000.000000 r_1_2_3 > 5.782100
s_2_3 + s_2_2 + 1000 r_2_2_3 >= 2
- s_2_3 - s_2_2 - 1000 r_2_2_3 >= -1001
t_2_3 - t_2_2 + 1000.000000 u_2_2_3 - 0.000000 s_2_2  + 2000.000000 r_2_2_3 > 6.769100
s_1_3 + s_1_4 + 1000 r_1_3_4 >= 2
- s_1_3 - s_1_4 - 1000 r_1_3_4 >= -1001
t_1_3 - t_1_4 - 1000.000000 u_1_3_4 - 0.000000 s_1_4  + 2000.000000 r_1_3_4 > -991.335100
s_2_3 + s_2_4 + 1000 r_2_3_4 >= 2
- s_2_3 - s_2_4 - 1000 r_2_3_4 >= -1001
t_2_3 - t_2_4 - 1000.000000 u_2_3_4 - 0.000000 s_2_4  + 2000.000000 r_2_3_4 > -985.635100
t_1_5 - t_1_3 - 1000.000000 s_1_3  > -994.219300
t_1_5 - t_2_3 - 1000.000000 s_2_3  > -993.119600
t_2_5 - t_1_3 - 1000.000000 s_1_3  > -994.219300
t_2_5 - t_2_3 - 1000.000000 s_2_3  > -993.119600
s_1_3 + s_1_6 + 1000 r_1_3_6 >= 2
- s_1_3 - s_1_6 - 1000 r_1_3_6 >= -1001
t_1_3 - t_1_6 - 1000.000000 u_1_3_6 - 0.000000 s_1_6  + 2000.000000 r_1_3_6 > -990.947900
s_2_3 + s_2_6 + 1000 r_2_3_6 >= 2
- s_2_3 - s_2_6 - 1000 r_2_3_6 >= -1001
t_2_3 - t_2_6 - 1000.000000 u_2_3_6 - 0.000000 s_2_6  + 2000.000000 r_2_3_6 > -985.898700
s_1_3 + s_1_7 + 1000 r_1_3_7 >= 2
- s_1_3 - s_1_7 - 1000 r_1_3_7 >= -1001
t_1_3 - t_1_7 - 1000.000000 u_1_3_7 - 0.000000 s_1_7  + 2000.000000 r_1_3_7 > -996.523300
s_2_3 + s_2_7 + 1000 r_2_3_7 >= 2
- s_2_3 - s_2_7 - 1000 r_2_3_7 >= -1001
t_2_3 - t_2_7 - 1000.000000 u_2_3_7 - 0.000000 s_2_7  + 2000.000000 r_2_3_7 > -995.016000
s_1_4 + s_1_1 + 1000 r_1_1_4 >= 2
- s_1_4 - s_1_1 - 1000 r_1_1_4 >= -1001
t_1_4 - t_1_1 + 1000.000000 u_1_1_4 - 0.000000 s_1_1  + 2000.000000 r_1_1_4 > 0.312300
s_2_4 + s_2_1 + 1000 r_2_1_4 >= 2
- s_2_4 - s_2_1 - 1000 r_2_1_4 >= -1001
t_2_4 - t_2_1 + 1000.000000 u_2_1_4 - 0.000000 s_2_1  + 2000.000000 r_2_1_4 > 1.697200
s_1_4 + s_1_3 + 1000 r_1_3_4 >= 2
- s_1_4 - s_1_3 - 1000 r_1_3_4 >= -1001
t_1_4 - t_1_3 + 1000.000000 u_1_3_4 - 0.000000 s_1_3  + 2000.000000 r_1_3_4 > 5.780700
s_2_4 + s_2_3 + 1000 r_2_3_4 >= 2
- s_2_4 - s_2_3 - 1000 r_2_3_4 >= -1001
t_2_4 - t_2_3 + 1000.000000 u_2_3_4 - 0.000000 s_2_3  + 2000.000000 r_2_3_4 > 6.880400
s_1_4 + s_1_5 + 1000 r_1_4_5 >= 2
- s_1_4 - s_1_5 - 1000 r_1_4_5 >= -1001
t_1_4 - t_1_5 - 1000.000000 u_1_4_5 - 0.000000 s_1_5  + 2000.000000 r_1_4_5 > -994.526200
s_2_4 + s_2_5 + 1000 r_2_4_5 >= 2
- s_2_4 - s_2_5 - 1000 r_2_4_5 >= -1001
t_2_4 - t_2_5 - 1000.000000 u_2_4_5 - 0.000000 s_2_5  + 2000.000000 r_2_4_5 > -992.355500
t_1_6 - t_1_4 - 1000.000000 s_1_4  > -991.335100
t_1_6 - t_2_4 - 1000.000000 s_2_4  > -985.635100
t_2_6 - t_1_4 - 1000.000000 s_1_4  > -991.335100
t_2_6 - t_2_4 - 1000.000000 s_2_4  > -985.635100
s_1_5 + s_1_1 + 1000 r_1_1_5 >= 2
- s_1_5 - s_1_1 - 1000 r_1_1_5 >= -1001
t_1_5 - t_1_1 + 1000.000000 u_1_1_5 - 0.000000 s_1_1  + 2000.000000 r_1_1_5 > 0.312300
s_2_5 + s_2_1 + 1000 r_2_1_5 >= 2
- s_2_5 - s_2_1 - 1000 r_2_1_5 >= -1001
t_2_5 - t_2_1 + 1000.000000 u_2_1_5 - 0.000000 s_2_1  + 2000.000000 r_2_1_5 > 1.697200
s_1_5 + s_1_2 + 1000 r_1_2_5 >= 2
- s_1_5 - s_1_2 - 1000 r_1_2_5 >= -1001
t_1_5 - t_1_2 + 1000.000000 u_1_2_5 - 0.000000 s_1_2  + 2000.000000 r_1_2_5 > 5.782100
s_2_5 + s_2_2 + 1000 r_2_2_5 >= 2
- s_2_5 - s_2_2 - 1000 r_2_2_5 >= -1001
t_2_5 - t_2_2 + 1000.000000 u_2_2_5 - 0.000000 s_2_2  + 2000.000000 r_2_2_5 > 6.769100
s_1_5 + s_1_4 + 1000 r_1_4_5 >= 2
- s_1_5 - s_1_4 - 1000 r_1_4_5 >= -1001
t_1_5 - t_1_4 + 1000.000000 u_1_4_5 - 0.000000 s_1_4  + 2000.000000 r_1_4_5 > 8.664900
s_2_5 + s_2_4 + 1000 r_2_4_5 >= 2
- s_2_5 - s_2_4 - 1000 r_2_4_5 >= -1001
t_2_5 - t_2_4 + 1000.000000 u_2_4_5 - 0.000000 s_2_4  + 2000.000000 r_2_4_5 > 14.364900
s_1_5 + s_1_6 + 1000 r_1_5_6 >= 2
- s_1_5 - s_1_6 - 1000 r_1_5_6 >= -1001
t_1_5 - t_1_6 - 1000.000000 u_1_5_6 - 0.000000 s_1_6  + 2000.000000 r_1_5_6 > -990.947900
s_2_5 + s_2_6 + 1000 r_2_5_6 >= 2
- s_2_5 - s_2_6 - 1000 r_2_5_6 >= -1001
t_2_5 - t_2_6 - 1000.000000 u_2_5_6 - 0.000000 s_2_6  + 2000.000000 r_2_5_6 > -985.898700
s_1_5 + s_1_7 + 1000 r_1_5_7 >= 2
- s_1_5 - s_1_7 - 1000 r_1_5_7 >= -1001
t_1_5 - t_1_7 - 1000.000000 u_1_5_7 - 0.000000 s_1_7  + 2000.000000 r_1_5_7 > -996.523300
s_2_5 + s_2_7 + 1000 r_2_5_7 >= 2
- s_2_5 - s_2_7 - 1000 r_2_5_7 >= -1001
t_2_5 - t_2_7 - 1000.000000 u_2_5_7 - 0.000000 s_2_7  + 2000.000000 r_2_5_7 > -995.016000
t_1_8 - t_1_5 - 1000.000000 s_1_5  > -994.526200
t_1_8 - t_2_5 - 1000.000000 s_2_5  > -992.355500
t_2_8 - t_1_5 - 1000.000000 s_1_5  > -994.526200
t_2_8 - t_2_5 - 1000.000000 s_2_5  > -992.355500
s_1_6 + s_1_1 + 1000 r_1_1_6 >= 2
- s_1_6 - s_1_1 - 1000 r_1_1_6 >= -1001
t_1_6 - t_1_1 + 1000.000000 u_1_1_6 - 0.000000 s_1_1  + 2000.000000 r_1_1_6 > 0.312300
s_2_6 + s_2_1 + 1000 r_2_1_6 >= 2
- s_2_6 - s_2_1 - 1000 r_2_1_6 >= -1001
t_2_6 - t_2_1 + 1000.000000 u_2_1_6 - 0.000000 s_2_1  + 2000.000000 r_2_1_6 > 1.697200
s_1_6 + s_1_3 + 1000 r_1_3_6 >= 2
- s_1_6 - s_1_3 - 1000 r_1_3_6 >= -1001
t_1_6 - t_1_3 + 1000.000000 u_1_3_6 - 0.000000 s_1_3  + 2000.000000 r_1_3_6 > 5.780700
s_2_6 + s_2_3 + 1000 r_2_3_6 >= 2
- s_2_6 - s_2_3 - 1000 r_2_3_6 >= -1001
t_2_6 - t_2_3 + 1000.000000 u_2_3_6 - 0.000000 s_2_3  + 2000.000000 r_2_3_6 > 6.880400
s_1_6 + s_1_5 + 1000 r_1_5_6 >= 2
- s_1_6 - s_1_5 - 1000 r_1_5_6 >= -1001
t_1_6 - t_1_5 + 1000.000000 u_1_5_6 - 0.000000 s_1_5  + 2000.000000 r_1_5_6 > 5.473800
s_2_6 + s_2_5 + 1000 r_2_5_6 >= 2
- s_2_6 - s_2_5 - 1000 r_2_5_6 >= -1001
t_2_6 - t_2_5 + 1000.000000 u_2_5_6 - 0.000000 s_2_5  + 2000.000000 r_2_5_6 > 7.644500
t_1_7 - t_1_6 - 1000.000000 s_1_6  > -990.947900
t_1_7 - t_2_6 - 1000.000000 s_2_6  > -985.898700
t_2_7 - t_1_6 - 1000.000000 s_1_6  > -990.947900
t_2_7 - t_2_6 - 1000.000000 s_2_6  > -985.898700
s_1_7 + s_1_1 + 1000 r_1_1_7 >= 2
- s_1_7 - s_1_1 - 1000 r_1_1_7 >= -1001
t_1_7 - t_1_1 + 1000.000000 u_1_1_7 - 0.000000 s_1_1  + 2000.000000 r_1_1_7 > 0.312300
s_2_7 + s_2_1 + 1000 r_2_1_7 >= 2
- s_2_7 - s_2_1 - 1000 r_2_1_7 >= -1001
t_2_7 - t_2_1 + 1000.000000 u_2_1_7 - 0.000000 s_2_1  + 2000.000000 r_2_1_7 > 1.697200
s_1_7 + s_1_3 + 1000 r_1_3_7 >= 2
- s_1_7 - s_1_3 - 1000 r_1_3_7 >= -1001
t_1_7 - t_1_3 + 1000.000000 u_1_3_7 - 0.000000 s_1_3  + 2000.000000 r_1_3_7 > 5.780700
s_2_7 + s_2_3 + 1000 r_2_3_7 >= 2
- s_2_7 - s_2_3 - 1000 r_2_3_7 >= -1001
t_2_7 - t_2_3 + 1000.000000 u_2_3_7 - 0.000000 s_2_3  + 2000.000000 r_2_3_7 > 6.880400
s_1_7 + s_1_5 + 1000 r_1_5_7 >= 2
- s_1_7 - s_1_5 - 1000 r_1_5_7 >= -1001
t_1_7 - t_1_5 + 1000.000000 u_1_5_7 - 0.000000 s_1_5  + 2000.000000 r_1_5_7 > 5.473800
s_2_7 + s_2_5 + 1000 r_2_5_7 >= 2
- s_2_7 - s_2_5 - 1000 r_2_5_7 >= -1001
t_2_7 - t_2_5 + 1000.000000 u_2_5_7 - 0.000000 s_2_5  + 2000.000000 r_2_5_7 > 7.644500
t_1_8 - t_1_7 - 1000.000000 s_1_7  > -996.523300
t_1_8 - t_2_7 - 1000.000000 s_2_7  > -995.016000
t_2_8 - t_1_7 - 1000.000000 s_1_7  > -996.523300
t_2_8 - t_2_7 - 1000.000000 s_2_7  > -995.016000
Binary
s_1_1
s_2_1
s_1_2
s_2_2
s_1_3
s_2_3
s_1_4
s_2_4
s_1_5
s_2_5
s_1_6
s_2_6
s_1_7
s_2_7
s_1_8
s_2_8
u_1_1_2
r_1_1_2
u_2_1_2
r_2_1_2
u_1_1_3
r_1_1_3
u_2_1_3
r_2_1_3
u_1_1_4
r_1_1_4
u_2_1_4
r_2_1_4
u_1_1_5
r_1_1_5
u_2_1_5
r_2_1_5
u_1_1_6
r_1_1_6
u_2_1_6
r_2_1_6
u_1_1_7
r_1_1_7
u_2_1_7
r_2_1_7
u_1_2_3
r_1_2_3
u_2_2_3
r_2_2_3
u_1_2_5
r_1_2_5
u_2_2_5
r_2_2_5
u_1_3_4
r_1_3_4
u_2_3_4
r_2_3_4
u_1_3_6
r_1_3_6
u_2_3_6
r_2_3_6
u_1_3_7
r_1_3_7
u_2_3_7
r_2_3_7
u_1_4_5
r_1_4_5
u_2_4_5
r_2_4_5
u_1_5_6
r_1_5_6
u_2_5_6
r_2_5_6
u_1_5_7
r_1_5_7
u_2_5_7
r_2_5_7

End
